(set-logic ALL)
(declare-fun var0 () String)
(assert (str.in_re var0 (re.++ (re.* (re.+ (str.to_re "000"))) (re.++ (re.union (re.* (str.to_re "1")) (re.* (str.to_re "22"))) (re.++ (re.union (re.* (str.to_re "3")) (re.* (str.to_re "444"))) (re.++ (re.+ (re.union (str.to_re "55") (str.to_re "6"))) (re.++ (re.* (re.+ (str.to_re "77"))) (re.++ (re.+ (re.* (str.to_re "888"))) (re.++ (re.* (re.* (str.to_re "9"))) (re.++ (re.union (re.+ (str.to_re "a")) (re.+ (str.to_re "bbb"))) (re.++ (re.union (re.* (str.to_re "c")) (re.* (str.to_re "dd"))) (re.union (re.union (str.to_re "eee") (str.to_re "ff")) (re.union (str.to_re "g") (str.to_re "h"))))))))))))))
(assert (<= 376 (str.len var0)))
(check-sat)